&CONTROL
  calculation = 'bands'
  restart_mode = 'from_scratch'
  pseudo_dir = '/N/u/georgesc/BigRed200/QEPSP/'
  prefix = 'LK99-0'
  verbosity = 'high'
  outdir='./scratch'
  wfcdir='./scratch'
  forc_conv_thr=1.0D-4
/
&SYSTEM
   ntyp             = 4
   nat              = 41
   ibrav            = 0
   ecutwfc = 40.0
   ecutrho = 400.0
   occupations = 'smearing'
   smearing = 'gauss'
   degauss = 0.004
   nspin = 2
   lda_plus_u=.true.
   Hubbard_U(1)=4.0
   starting_magnetization(1)=1.0
/
&ELECTRONS
scf_must_converge=.false.
/
&IONS
/
&CELL
/

ATOMIC_SPECIES
Cu 26.9815385 Cu.alex.UPF
Pb 106.42 Pb.alex.UPF
O 126.90447 O.alex.UPF
P 100.00   P.alex.UPF

CELL_PARAMETERS angstrom
   9.870325118   0.000000000  -0.000000000
  -4.935162559   8.547952296  -0.000000000
   0.000000000  -0.000000000   7.396486226

ATOMIC_POSITIONS angstrom
P            -1.0595108664        2.6622382816        5.6017530049
P             3.1593516972        6.2992698612        5.6017530049
P            -2.0998413090        8.1343967042        5.6017530049
P            -2.7916272160        5.9598904690        1.7365323816
P             1.1695596542        3.1503869102        1.7365323816
P             1.6220676357        7.9856272122        1.7365323816
Pb            3.5987325638        0.4747952239        1.7317284552
Pb            7.6597740737        2.8791961464        1.7317284552
Pb            3.5469810761        5.1939608619        1.7317284552
Pb            2.6665432030        2.8708186854        5.5830508007
Pb            6.0508513116        0.8738848123        5.5830508007
Pb            6.0880925740        4.8032487986        5.5830508007
Pb            0.0000000000       -0.0000000000        3.7831879863
Pb           -0.0000000000       -0.0000000000        7.4308409658
Pb           -0.0000000000        5.6986350333        3.8892805144
Cu           -0.0000000000        5.6986350333        7.3371663772
O            -3.2201624338        4.8647523346        0.6972885100
O             2.3322446246        3.3268337367        0.6972885100
O             0.8879178642        8.9043187757        0.6972885100
O            -2.5015656650        5.1925139654        3.0617398436
O             1.6890964057        3.7852758663        3.0617398436
O             0.8124691489        8.1181145046        3.0617398436
O            -3.4851463623        7.4020195499        5.7087244191
O             0.2673987695        1.8287172349        5.7087244191
O             3.2177474450        7.8651675515        5.7087244191
O            -0.7912903307        4.1940873537        5.6896684573
O             1.6986216038        5.7656309637        5.6896684573
O            -0.9073311263        7.1361862748        5.6896684573
O            -0.1174142901        3.9280937345        1.2442329248
O             1.5920409618        6.4822217982        1.2442329248
O            -1.4746265250        6.6855893133        1.2442329248
O             0.7861130699        1.6524695390        1.9060259447
O             8.0461879825       -0.1454408814        1.9060259447
O             5.9731866245        7.0409236374        1.9060259447
O             2.8373424124        0.4127024431        4.2788065851
O             8.0942433323        2.2508592590        4.2788065851
O             3.8739021529        5.8843907200        4.2788065851
O             2.9124538029        0.6293498848        6.7790139677
O             7.8690651546        2.2075839107        6.7790139677
O             4.0239687927        5.7110183724        6.7790139677
O             4.9351627060        2.8493175166        5.5210448435
End final coordinates
K_POINTS crystal
101
0       0       0       1
0.0166666500000000      0.0166666500000000      0       2
0.0333333000000000      0.0333333000000000      0       3
0.0499999500000000      0.0499999500000000      0       4
0.0666666000000000      0.0666666000000000      0       5
0.0833332500000000      0.0833332500000000      0       6
0.0999999000000000      0.0999999000000000      0       7
0.116666550000000       0.116666550000000       0       8
0.133333200000000       0.133333200000000       0       9
0.149999850000000       0.149999850000000       0       10
0.166666500000000       0.166666500000000       0       11
0.183333150000000       0.183333150000000       0       12
0.199999800000000       0.199999800000000       0       13
0.216666450000000       0.216666450000000       0       14
0.233333100000000       0.233333100000000       0       15
0.249999750000000       0.249999750000000       0       16
0.266666400000000       0.266666400000000       0       17
0.283333050000000       0.283333050000000       0       18
0.299999700000000       0.299999700000000       0       19
0.316666350000000       0.316666350000000       0       20
0.333333000000000       0.333333000000000       0       21
0.341666350000000       0.316666350000000       0       22
0.349999700000000       0.299999700000000       0       23
0.358333050000000       0.283333050000000       0       24
0.366666400000000       0.266666400000000       0       25
0.374999750000000       0.249999750000000       0       26
0.383333100000000       0.233333100000000       0       27
0.391666450000000       0.216666450000000       0       28
0.399999800000000       0.199999800000000       0       29
0.408333150000000       0.183333150000000       0       30
0.416666500000000       0.166666500000000       0       31
0.424999850000000       0.149999850000000       0       32
0.433333200000000       0.133333200000000       0       33
0.441666550000000       0.116666550000000       0       34
0.449999900000000       0.0999999000000000      0       35
0.458333250000000       0.0833332500000000      0       36
0.466666600000000       0.0666666000000000      0       37
0.474999950000000       0.0499999500000000      0       38
0.483333300000000       0.0333333000000000      0       39
0.491666650000000       0.0166666500000000      0       40
0.500000000000000       0                       0       41
0.500000000000000       0                       0.0250000000000000      42
0.500000000000000       0                       0.0500000000000000      43
0.500000000000000       0                       0.0750000000000000      44
0.500000000000000       0                       0.100000000000000       45
0.500000000000000       0                       0.125000000000000       46
0.500000000000000       0                       0.150000000000000       47
0.500000000000000       0                       0.175000000000000       48
0.500000000000000       0                       0.200000000000000       49
0.500000000000000       0                       0.225000000000000       50
0.500000000000000       0                       0.250000000000000       51
0.500000000000000       0                       0.275000000000000       52
0.500000000000000       0                       0.300000000000000       53
0.500000000000000       0                       0.325000000000000       54
0.500000000000000       0                       0.350000000000000       55
0.500000000000000       0                       0.375000000000000       56
0.500000000000000       0                       0.400000000000000       57
0.500000000000000       0                       0.425000000000000       58
0.500000000000000       0                       0.450000000000000       59
0.500000000000000       0                       0.475000000000000       60
0.500000000000000       0                       0.500000000000000       61
0.475000000000000       0                       0.500000000000000       62
0.450000000000000       0                       0.500000000000000       63
0.425000000000000       0                       0.500000000000000       64
0.400000000000000       0                       0.500000000000000       65
0.375000000000000       0                       0.500000000000000       66
0.350000000000000       0                       0.500000000000000       67
0.325000000000000       0                       0.500000000000000       68
0.300000000000000       0                       0.500000000000000       69
0.275000000000000       0                       0.500000000000000       70
0.250000000000000       0                       0.500000000000000       71
0.225000000000000       0                       0.500000000000000       72
0.200000000000000       0                       0.500000000000000       73
0.175000000000000       0                       0.500000000000000       74
0.150000000000000       0                       0.500000000000000       75
0.125000000000000       0                       0.500000000000000       76
0.100000000000000       0                       0.500000000000000       77
0.0750000000000000      0                       0.500000000000000       78
0.0500000000000000      0                       0.500000000000000       79
0.0250000000000000      0                       0.500000000000000       80
0                       0                       0.500000000000000       81
0                       0                       0.475000000000000       82
0                       0                       0.450000000000000       83
0                       0                       0.425000000000000       84
0                       0                       0.400000000000000       85
0                       0                       0.375000000000000       86
0                       0                       0.350000000000000       87
0                       0                       0.325000000000000       88
0                       0                       0.300000000000000       89
0                       0                       0.275000000000000       90
0                       0                       0.250000000000000       91
0                       0                       0.225000000000000       92
0                       0                       0.200000000000000       93
0                       0                       0.175000000000000       94
0                       0                       0.150000000000000       95
0                       0                       0.125000000000000       96
0                       0                       0.100000000000000       97
0                       0                       0.0750000000000000      98
0                       0                       0.0500000000000000      99
0                       0                       0.0250000000000000      100
0                       0                       0                       101
