&CONTROL
  calculation = 'scf'
  restart_mode = 'from_scratch'
  pseudo_dir = '/N/u/georgesc/BigRed200/QEPSP/'
  prefix = 'LK99-0'
  verbosity = 'high'
  outdir='./scratch'
  wfcdir='./scratch'
/
&SYSTEM
   ntyp             = 4
   nat              = 41
   ibrav            = 0
   ecutwfc = 40.0
   ecutrho = 400.0
   occupations = 'smearing'
   smearing = 'gauss'
   degauss = 0.004
   nspin = 2
   lda_plus_u=.true.
   Hubbard_U(1)=4.0
   starting_magnetization(1)=1.0
/
&ELECTRONS
scf_must_converge=.true.
/
&IONS
/
&CELL
/

ATOMIC_SPECIES
Cu 26.9815385 Cu.alex.UPF
Pb 106.42 Pb.alex.UPF
O 126.90447 O.alex.UPF
P 100.00   P.alex.UPF

CELL_PARAMETERS angstrom
  10.000822250  -0.142939183  -0.015342706
  -5.123501417   8.639907607  -0.048562736
  -0.010935285  -0.049174275   7.411711270

ATOMIC_POSITIONS angstrom
P            -1.0400065851        2.6920123891        5.6926452327
P             3.1019883322        6.2489425868        5.5962238482
P            -2.3224035859        8.2407147200        5.4238796063
P            -3.0012987838        6.0229297156        1.8187603485
P             1.1424241068        3.1170890927        1.7553075816
P             1.5032735260        7.8549887327        1.5767598063
Pb            3.7223498218        0.4531025189        1.6307617258
Pb            7.7201369643        2.8210111372        1.7479326648
Pb            3.5534177262        5.1513189090        1.7946641882
Pb            2.7349585229        2.7887425805        5.5064466208
Pb            6.1407919707        0.7690433288        5.5647877668
Pb            6.0977572085        4.6632489050        5.6664889845
Pb            0.0344327660        0.0235129071        3.7850782962
Pb            0.0175426488       -0.0985265073        7.4372575585
Pb           -0.1842580471        5.7604675914        3.8103408598
Cu            0.4893466223        5.1430305018        7.2283057310
O            -3.3376482538        4.9131050439        0.7476916181
O             2.2180855401        3.3362705992        0.6433449137
O             0.7623754958        8.7297275020        0.5095556159
O            -2.6426270325        5.2118654256        3.1098487015
O             1.6964007835        3.7190481175        3.0675646349
O             0.6869281077        8.0214041152        2.8959234409
O            -3.6977774331        7.4919878886        5.5428883223
O             0.2196049139        1.7711878481        5.7887251248
O             3.2041110992        7.8089952313        5.6672967502
O            -0.6360269015        4.2077681591        5.8676535983
O             1.5950983254        5.8075017823        5.7098191411
O            -1.1173108448        7.2848371671        5.3650604935
O            -0.1559084014        3.9604438207        1.3070204314
O             1.4920145721        6.3125946548        1.1653010119
O            -1.7588051627        6.8617425340        1.3859989890
O             0.7067308884        1.6383949094        1.8883131950
O             8.1131343229       -0.3861051755        1.7934457525
O             5.7639605240        6.8105340877        1.9877039439
O             2.6982924182        0.5248190710        4.2024978224
O             8.2596224115        2.3365040777        4.3127765843
O             3.7165800965        5.7563911741        4.2620721147
O             2.9335182853        0.5629278257        6.7146939057
O             7.9508127659        2.1268047382        6.8056263434
O             3.9563028322        5.6417559880        6.7657615606
O             4.9943205663        2.7108572006        5.5941174589

K_POINTS automatic
4 4 4 0 0 0
