&CONTROL
  calculation = 'scf'
  restart_mode = 'from_scratch'
  pseudo_dir = '/N/u/georgesc/BigRed200/QEPSP/'
  prefix = 'LK99-0'
  verbosity = 'high'
  outdir='./scratch'
  wfcdir='./scratch'
  forc_conv_thr=1.0D-4
/
&SYSTEM
   ntyp             = 4
   nat              = 41
   ibrav            = 0
   ecutwfc = 40.0
   ecutrho = 400.0
   occupations = 'smearing'
   smearing = 'gauss'
   degauss = 0.004
   nspin = 2
   lda_plus_u=.true.
   Hubbard_U(1)=4.0
   starting_magnetization(1)=1.0
/
&ELECTRONS
scf_must_converge=.false.
/
&IONS
/
&CELL
/

ATOMIC_SPECIES
Cu 26.9815385 Cu.alex.UPF
Pb 106.42 Pb.alex.UPF
O 126.90447 O.alex.UPF
P 100.00   P.alex.UPF

CELL_PARAMETERS angstrom
   9.870325118   0.000000000  -0.000000000
  -4.935162559   8.547952296  -0.000000000
   0.000000000  -0.000000000   7.396486226

ATOMIC_POSITIONS angstrom
P            -1.0595108664        2.6622382816        5.6017530049
P             3.1593516972        6.2992698612        5.6017530049
P            -2.0998413090        8.1343967042        5.6017530049
P            -2.7916272160        5.9598904690        1.7365323816
P             1.1695596542        3.1503869102        1.7365323816
P             1.6220676357        7.9856272122        1.7365323816
Pb            3.5987325638        0.4747952239        1.7317284552
Pb            7.6597740737        2.8791961464        1.7317284552
Pb            3.5469810761        5.1939608619        1.7317284552
Pb            2.6665432030        2.8708186854        5.5830508007
Pb            6.0508513116        0.8738848123        5.5830508007
Pb            6.0880925740        4.8032487986        5.5830508007
Pb            0.0000000000       -0.0000000000        3.7831879863
Pb           -0.0000000000       -0.0000000000        7.4308409658
Pb           -0.0000000000        5.6986350333        3.8892805144
Cu           -0.0000000000        5.6986350333        7.3371663772
O            -3.2201624338        4.8647523346        0.6972885100
O             2.3322446246        3.3268337367        0.6972885100
O             0.8879178642        8.9043187757        0.6972885100
O            -2.5015656650        5.1925139654        3.0617398436
O             1.6890964057        3.7852758663        3.0617398436
O             0.8124691489        8.1181145046        3.0617398436
O            -3.4851463623        7.4020195499        5.7087244191
O             0.2673987695        1.8287172349        5.7087244191
O             3.2177474450        7.8651675515        5.7087244191
O            -0.7912903307        4.1940873537        5.6896684573
O             1.6986216038        5.7656309637        5.6896684573
O            -0.9073311263        7.1361862748        5.6896684573
O            -0.1174142901        3.9280937345        1.2442329248
O             1.5920409618        6.4822217982        1.2442329248
O            -1.4746265250        6.6855893133        1.2442329248
O             0.7861130699        1.6524695390        1.9060259447
O             8.0461879825       -0.1454408814        1.9060259447
O             5.9731866245        7.0409236374        1.9060259447
O             2.8373424124        0.4127024431        4.2788065851
O             8.0942433323        2.2508592590        4.2788065851
O             3.8739021529        5.8843907200        4.2788065851
O             2.9124538029        0.6293498848        6.7790139677
O             7.8690651546        2.2075839107        6.7790139677
O             4.0239687927        5.7110183724        6.7790139677
O             4.9351627060        2.8493175166        5.5210448435
End final coordinates
K_POINTS automatic
4 4 4 0 0 0
