&CONTROL
  calculation = 'scf'
  restart_mode = 'from_scratch'
  pseudo_dir = '/N/u/georgesc/BigRed200/QEPSP/'
  prefix = 'LK99-0'
  verbosity = 'high'
  outdir='./scratch'
  wfcdir='./scratch'
  forc_conv_thr=1.0D-4
/
&SYSTEM
   ntyp             = 4
   nat              = 41
   ibrav            = 0
   ecutwfc = 40.0
   ecutrho = 400.0
   occupations = 'smearing'
   smearing = 'gauss'
   degauss = 0.004
   nspin = 2
   lda_plus_u=.true.
   Hubbard_U(1)=4.0
   starting_magnetization(1)=1.0
/
&ELECTRONS
/
&IONS
/
&CELL
/

ATOMIC_SPECIES
Cu 26.9815385 Cu.alex.UPF
Pb 106.42 Pb.alex.UPF
O 126.90447 O.alex.UPF
P 100.00   P.alex.UPF

CELL_PARAMETERS angstrom
   9.735477232   0.166645682  -0.009849240
  -4.723240658   8.525956167  -0.018165572
  -0.008865371  -0.019507270   7.566302117

ATOMIC_POSITIONS angstrom
P            -1.1012203827        2.5741655243        5.6680655282
P             3.2699527711        6.4263272189        5.6934561731
P            -1.9630421568        8.2046979610        5.7252852154
P            -2.6785480364        6.0601460726        1.8661850348
P             1.4518549212        2.9272591190        1.7469003587
P             1.6520596104        8.2020141914        2.0257920605
Cu            3.4315011261        0.4849353136        1.2689468484
Pb            7.3818486959        2.9906914000        1.9502799246
Pb            3.6508940278        5.2373936781        1.6941651115
Pb            2.6457903069        2.9321120980        5.3872838253
Pb            5.8839305187        1.0683590579        5.6596959886
Pb            6.0561000812        4.9046074891        5.5317212159
Pb            0.0601587575       -0.1157049717        3.9593736524
Pb           -0.1314755673        0.0937832024        7.6594086646
Pb            0.0828918106        5.9326584399        3.8108977101
Pb           -0.0060466339        5.4753378659        7.4527222460
O            -2.5432250594        5.0951502721        0.6408424380
O             2.0932322283        3.6678359043        0.5257358281
O             0.6438309408        8.9521122372        1.0772660179
O            -2.5708497395        5.1718478678        3.1555036871
O             2.0473728303        3.5929955876        3.0233233807
O             1.0875803957        8.1528686540        3.4697195741
O            -3.3625280044        7.5467910793        5.9916138678
O             0.1851208641        1.6864953428        5.7615662370
O             3.3399393779        7.9810194163        5.8777781994
O            -0.6979522545        4.0786343060        5.6253287258
O             1.8090235016        5.8979790813        5.6279490510
O            -0.8755694304        7.0777823928        5.6866138749
O            -0.0945597645        3.1431673993        1.6822950752
O             1.8454957412        6.7119973978        1.5343752974
O            -1.4520898272        7.0452613924        1.8599285562
O             1.7309704369        1.3758625378        1.7153617815
O             7.7426460005        0.4164277810        1.9817612451
O             5.7152665517        7.0168353675        1.8328447910
O             2.6803084936        0.4842616969        4.4242869310
O             7.8451654904        2.3318218937        4.3696192907
O             4.0629689001        6.1007270737        4.3742833798
O             3.1323892257        0.7180726704        6.8630076969
O             7.7116513172        2.4291182226        6.8850334365
O             4.0337026499        5.7436579623        6.8801306630
O             4.8817724445        3.0187337019        5.1687112619

K_POINTS automatic
4 4 4 0 0 0
